robust/generate/spp_dkp_Lefebvre_et_al_2026/src/shortest_path_2_10.kp
52
39

[16.05 0.51]

[25 39]
